(set-logic HORN)
(declare-fun state (Int Int Int Int Int (Array Int Int) Int Int Int (Array Int Int) Bool) Bool)
(assert (forall ((|A_0| Int) (|B_0| Int) (|C_0| Int) (|E_0| Int) (|F_0| Int) (|I_0| (Array Int Int)) (|G_0| Int) (|D_0| Int) (|H_0| Int) (|J| (Array Int Int)) (|.loc.12| Bool) (|.loc.23| Bool) (|.y.22| (Array Int Int)) (|.y.20| Int) (|.y.18| (Array Int Int)) (|.y.21| Int) (|.y.19| Int) (|.y.17| Int) (|.y.16| Int) (|.y.15| Int) (|.y.14| Int) (|.y.13| Int)) (=> (and (and (and (and (= (+ C_0 (+ G_0 (* (- 1) D_0))) 0) (and (and (= B_0 0) (= A_0 0)) (= I_0 J))) (= E_0 G_0)) (= F_0 H_0)) (not .loc.12)) (state |A_0| |B_0| |C_0| |E_0| |F_0| |I_0| |G_0| |D_0| |H_0| |J| |.loc.12|))))
(assert (forall ((|A_0| Int) (|B_0| Int) (|C_0| Int) (|E_0| Int) (|F_0| Int) (|I_0| (Array Int Int)) (|G_0| Int) (|D_0| Int) (|H_0| Int) (|J| (Array Int Int)) (|.loc.12| Bool) (|.loc.23| Bool) (|.y.22| (Array Int Int)) (|.y.20| Int) (|.y.18| (Array Int Int)) (|.y.21| Int) (|.y.19| Int) (|.y.17| Int) (|.y.16| Int) (|.y.15| Int) (|.y.14| Int) (|.y.13| Int)) (=> (and (state |A_0| |B_0| |C_0| |E_0| |F_0| |I_0| |G_0| |D_0| |H_0| |J| |.loc.12|) (let ((.def_40 (select I_0 F_0))) (let ((.def_41 (select I_0 E_0))) (let ((.def_44 (select J H_0))) (let ((.def_47 (select J G_0))) (let ((.def_54 (not (= I_0 J)))) (let ((.def_55 (or (not (= (+ .def_40 (+ (* (- 1) .def_41) (+ (* (- 1) .def_44) .def_47))) 0)) .def_54))) (let ((.def_56 (= .def_44 .def_47))) (let ((.def_57 (not .def_56))) (let ((.def_59 (= .def_40 .def_41))) (let ((.def_60 (not .def_59))) (let ((.def_61 (or .def_54 .def_60))) (let ((.def_63 (= .def_47 0))) (let ((.def_66 (= G_0 D_0))) (let ((.def_67 (not .def_66))) (let ((.def_71 (= .def_41 0))) (let ((.def_73 (and .def_57 .def_67))) (let ((.def_75 (not .def_71))) (let ((.def_79 (and .def_56 .def_67))) (let ((.def_92 (<= (ite (<= 0 C_0) C_0 (* (- 1) C_0)) 0))) (let ((.def_93 (not .def_92))) (let ((.def_112 (or .def_54 (not (= A_0 B_0))))) (let ((.def_123 (not .loc.23))) (let ((.def_126 (= J .y.22))) (let ((.def_129 (= D_0 .y.20))) (let ((.def_132 (= I_0 .y.18))) (let ((.def_134 (not .def_63))) (let ((.def_139 (= (+ H_0 (* (- 1) .y.21)) (- 1)))) (let ((.def_144 (= (+ G_0 (* (- 1) .y.19)) (- 1)))) (let ((.def_149 (= (+ F_0 (* (- 1) .y.17)) (- 1)))) (let ((.def_154 (= (+ E_0 (* (- 1) .y.16)) (- 1)))) (let ((.def_159 (= (+ C_0 (* (- 1) .y.15)) 1))) (let ((.def_162 (= .def_40 .y.14))) (let ((.def_165 (= .def_41 .y.13))) (and (not .loc.12) (or (or (or (and (or (or (or (and (or (or (or (and (or (and (or (and .def_55 .def_57) (and (and .def_56 .def_61) .def_63)) .def_67) (and .def_61 .def_66)) .def_71) (and .def_60 (and (and .def_55 .def_73) .def_75))) (and .def_63 (and .def_61 (and .def_60 (and .def_75 .def_79))))) (and .def_61 (and .def_60 (and .def_66 .def_75)))) .def_93) (and (or .def_54 (not (= (+ A_0 (+ (* (- 1) B_0) (+ .def_44 (* (- 1) .def_47)))) 0))) (and .def_73 .def_92))) (and (and .def_63 (and .def_79 .def_92)) .def_112)) (and .def_112 (and .def_66 .def_92))) .loc.23) (and (and (and (and (and (and (and (and (and (and (and (and (and .def_59 (and .def_75 (and .def_79 .def_93))) .def_123) .def_126) .def_129) .def_132) .def_134) .def_139) .def_144) .def_149) .def_154) .def_159) .def_162) .def_165)) (and (or .def_63 (or .def_57 .def_66)) (and (= G_0 .y.19) (and (= H_0 .y.21) (and .def_165 (and .def_162 (and .def_159 (and .def_154 (and .def_149 (and .def_132 (and .def_129 (and .def_126 (and .def_123 (and .def_59 (and .def_75 .def_93))))))))))))))) (and (or .def_60 (or .def_71 .def_92)) (and (= A_0 .y.13) (and (= B_0 .y.14) (and (= C_0 .y.15) (and (= E_0 .y.16) (and (= F_0 .y.17) (and .def_144 (and .def_139 (and .def_134 (and .def_132 (and .def_129 (and .def_126 (and .def_79 .def_123))))))))))))))))))))))))))))))))))))))))))))))))) (state |.y.13| |.y.14| |.y.15| |.y.16| |.y.17| |.y.18| |.y.19| |.y.20| |.y.21| |.y.22| |.loc.23|))))
(assert (forall ((|A_0| Int) (|B_0| Int) (|C_0| Int) (|E_0| Int) (|F_0| Int) (|I_0| (Array Int Int)) (|G_0| Int) (|D_0| Int) (|H_0| Int) (|J| (Array Int Int)) (|.loc.12| Bool) (|.loc.23| Bool) (|.y.22| (Array Int Int)) (|.y.20| Int) (|.y.18| (Array Int Int)) (|.y.21| Int) (|.y.19| Int) (|.y.17| Int) (|.y.16| Int) (|.y.15| Int) (|.y.14| Int) (|.y.13| Int)) (=> (state |A_0| |B_0| |C_0| |E_0| |F_0| |I_0| |G_0| |D_0| |H_0| |J| |.loc.12|) (not .loc.12))))
(check-sat)
